10	5
0	5	7	1	2	3	4
1	1	9
2	1	6
3	1	10
4	2	5	8
5	1	11
6	1	10
7	1	11
8	1	11
9	1	11
10	1	11
11	0
0	0	0	0	0	0	0
1	6	5	1	5	2	5
2	6	4	2	1	3	3
3	8	3	3	3	3	3
4	2	2	4	1	5	1
5	8	3	2	4	5	3
6	1	4	1	3	2	5
7	5	3	4	2	4	3
8	8	5	3	4	5	5
9	9	3	3	2	5	3
10	5	3	3	2	5	3
11	0	0	0	0	0	0
14	11	12	14	14
